CMD:
./solvers/bin/cadical --plain --no-reduce -t 1600 ./data/cnfs//bobtuttt/bobtuttt.48.cnf

c --- [ banner ] -------------------------------------------------------------
c 
c CaDiCaL SAT Solver
c Copyright (c) 2016-2024
c A. Biere, M. Fleury, N. Froleyks, K. Fazekas, F. Pollitt, T. Faller
c JKU Linz, University of Freiburg, TU Wien
c 
c Version 2.1.3 5296d3d2a9bf48c154ab2acb5e44625776d821bf
c g++ (Gentoo 12.3.1_p20230526 p2) 12.3.1 20230526 -Wall -Wextra -O3 -DNDEBUG
c Sat Aug 9 07:26:21 PDT 2025 Linux cedar2.int.cedar.computecanada.ca 5.14.0-362.24.2.el9_3.x86_64 x86_64
c 
c --- [ limit ] --------------------------------------------------------------
c 
c setting time limit to 1600 seconds real time (due to '-t 1600')
c 
c --- [ parsing input ] ------------------------------------------------------
c 
c reading DIMACS file from './data/cnfs//bobtuttt/bobtuttt.48.cnf'
c opening file to read './data/cnfs//bobtuttt/bobtuttt.48.cnf'
c found 'p cnf 602370 1394112' header
c parsed 1394112 clauses in 0.23 seconds process time
c 
c --- [ options ] ------------------------------------------------------------
c 
c   --compact=false                (different from default 'true')
c   --decompose=false              (different from default 'true')
c   --deduplicate=false            (different from default 'true')
c   --elim=false                   (different from default 'true')
c   --probe=false                  (different from default 'true')
c   --reduce=false                 (different from default 'true')
c   --subsume=false                (different from default 'true')
c   --ternary=false                (different from default 'true')
c   --transred=false               (different from default 'true')
c   --vivify=false                 (different from default 'true')
c 
c --- [ solving ] ------------------------------------------------------------
c 
c time measured in process time since initialization
c 
c  seconds   reductions  redundant   irredundant
c          MB    restarts       trail        variables
c           level   conflicts       glue           remaining
c 
c *  0.23 242  0 0   0    0    0  0% 0 1373241 591952 98%
c {  0.25 244  0 0   0    0    0  0% 0 1373241 591952 98%
c i  0.28 244 96 0   0   45   44  4% 1 1373241 591848 98%
c i  0.85 251 58 0  86  914  868  8% 3 1373241 591841 98%
c }  0.86 251 54 0  86 1001  951  8% 3 1373241 591841 98%
c [  0.86 251  0 0  86 1001  951  0% 0 1373241 591841 98%
c O  0.88 251 2811 0  86 1002  952 12% 6 1373241 591841 98%
c ]  1.68 264 95043 0  86 1633 1542 78% 8 1373241 591841 98%
c 1  1.68 264 95043 0  86 1633 1542 78% 8 1373241 591841 98%
c 
c --- [ result ] -------------------------------------------------------------
c 
s SATISFIABLE
v 1 2 3 4 5 6 7 8 9 10 11 12 13 14 15 16 17 18 19 20 21 22 23 24 25 26 27 28
v 29 30 31 32 33 34 35 36 37 38 39 40 41 42 43 44 45 46 47 48 49 50 51 52 53
v 54 55 56 57 58 59 60 61 62 63 64 65 66 67 68 69 70 71 72 73 74 75 76 77 78
v 79 80 81 82 83 84 85 86 87 88 89 90 91 92 93 94 95 96 97 98 99 100 101 102
v 103 104 105 106 107 108 109 110 111 112 113 114 115 116 117 118 119 120 121
v 122 123 124 125 126 127 128 129 130 131 132 133 134 135 136 137 138 139 140
v 141 142 143 144 145 146 147 148 149 150 151 152 153 154 155 156 157 158 159
v 160 161 162 163 164 165 166 167 168 169 170 171 172 173 174 175 176 177 178
v 179 180 181 182 183 184 185 186 187 188 189 190 191 192 193 194 195 196 197
v 198 199 200 201 202 203 204 205 206 207 208 209 210 211 212 213 214 215 216
v 217 218 219 220 221 222 223 224 225 226 227 228 229 230 231 232 233 234 235
v 236 237 238 239 240 241 242 243 244 245 246 247 248 249 250 251 252 253 254
v 255 256 257 258 259 260 261 262 263 264 265 266 267 268 269 270 271 272 273
v 274 275 276 277 278 279 280 281 282 283 284 285 286 287 288 289 290 291 292
v 293 294 295 296 297 298 299 300 301 302 303 304 305 306 307 308 309 310 311
v 312 313 314 315 316 317 318 319 320 321 322 323 324 325 326 327 328 329 330
v 331 332 333 334 335 336 337 338 339 340 341 342 343 344 345 346 347 348 349
v 350 351 352 353 354 355 356 357 358 359 360 361 362 363 364 365 366 367 368
v 369 370 371 372 373 374 375 376 377 378 379 380 381 382 383 384 385 386 387
v 388 389 390 391 392 393 394 395 396 397 398 399 400 401 402 403 404 405 406
v 407 408 409 410 411 412 413 414 415 416 417 418 419 420 421 422 423 424 425
v 426 427 428 429 430 431 432 433 434 435 436 437 438 439 440 441 442 443 444
v 445 446 447 448 449 450 451 452 453 454 455 456 457 458 459 460 461 462 463
v 464 465 466 467 468 469 470 471 472 473 474 475 476 477 478 479 480 481 482
v 483 484 485 486 487 488 489 490 491 492 493 494 495 496 497 498 499 500 501
v 502 503 504 505 506 507 508 509 510 511 512 513 514 515 516 517 518 519 520
v 521 522 523 524 525 526 527 528 529 530 531 532 533 534 535 536 537 538 539
v 540 541 542 543 544 545 546 547 548 549 550 551 552 553 554 555 556 557 558
v 559 560 561 562 563 564 565 566 567 568 569 570 571 572 573 574 575 576 577
v 578 579 580 581 582 583 584 585 586 587 588 589 590 591 592 593 594 595 596
v 597 598 599 600 601 602 603 604 605 606 607 608 609 610 611 612 613 614 615
v 616 617 618 619 620 621 622 623 624 625 626 627 628 629 630 631 632 633 634
v 635 636 637 638 639 640 641 642 643 644 645 646 647 648 649 650 651 652 653
v 654 655 656 657 658 659 660 661 662 663 664 665 666 667 668 669 670 671 672
v 673 674 675 676 677 678 679 680 681 682 683 684 685 686 687 688 689 690 691
v 692 693 694 695 696 697 698 699 700 701 702 703 704 705 706 707 708 709 710
v 711 712 713 714 715 716 717 718 719 720 721 722 723 724 725 726 727 728 729
v 730 731 732 733 734 735 736 737 738 739 740 741 742 743 744 745 746 747 748
v 749 750 751 752 753 754 755 756 757 758 759 760 761 762 763 764 765 766 767
v 768 769 770 771 772 773 774 775 776 777 778 779 780 781 782 783 784 785 786
v 787 788 789 790 791 792 793 794 795 796 797 798 799 800 801 802 803 804 805
... skipped 59182 lines ...
v -601869 601870 601871 -601872 -601873 -601874 -601875 601876 601877 -601878
v 601879 -601880 -601881 601882 601883 -601884 -601885 601886 601887 -601888
v -601889 -601890 -601891 -601892 601893 601894 -601895 -601896 -601897
v -601898 -601899 -601900 601901 601902 -601903 -601904 -601905 -601906 601907
v 601908 -601909 -601910 -601911 -601912 -601913 601914 601915 -601916 -601917
v -601918 -601919 -601920 -601921 601922 601923 -601924 -601925 -601926
v -601927 601928 601929 -601930 -601931 -601932 -601933 -601934 601935 601936
v -601937 -601938 -601939 -601940 -601941 601942 601943 -601944 -601945
v -601946 -601947 -601948 601949 601950 -601951 -601952 -601953 -601954 601955
v -601956 -601957 601958 -601959 -601960 -601961 601962 601963 -601964 -601965
v -601966 -601967 -601968 601969 601970 -601971 -601972 -601973 -601974
v -601975 601976 601977 -601978 -601979 -601980 -601981 -601982 601983 601984
v -601985 -601986 -601987 -601988 601989 -601990 -601991 601992 -601993 601994
v 601995 -601996 -601997 -601998 -601999 -602000 602001 -602002 602003 602004
v -602005 -602006 602007 602008 -602009 -602010 -602011 -602012 -602013 602014
v 602015 -602016 -602017 -602018 -602019 -602020 -602021 602022 -602023
v -602024 602025 602026 -602027 -602028 -602029 -602030 -602031 -602032
v -602033 -602034 -602035 602036 -602037 602038 -602039 602040 602041 602042
v 602043 -602044 602045 602046 602047 602048 602049 602050 602051 602052
v -602053 -602054 602055 602056 -602057 -602058 602059 602060 602061 602062
v -602063 -602064 602065 -602066 -602067 602068 602069 602070 602071 -602072
v -602073 602074 602075 -602076 -602077 602078 602079 602080 602081 -602082
v -602083 602084 -602085 -602086 602087 602088 602089 602090 -602091 602092
v -602093 -602094 -602095 602096 -602097 602098 602099 602100 602101 602102
v 602103 -602104 -602105 602106 -602107 -602108 602109 602110 602111 -602112
v -602113 -602114 -602115 602116 -602117 -602118 602119 -602120 602121 -602122
v 602123 -602124 602125 -602126 -602127 -602128 602129 602130 -602131 602132
v 602133 602134 -602135 602136 -602137 602138 602139 602140 -602141 -602142
v 602143 -602144 -602145 -602146 602147 -602148 602149 -602150 602151 -602152
v 602153 -602154 602155 -602156 -602157 -602158 -602159 -602160 -602161
v -602162 -602163 602164 602165 602166 602167 602168 602169 -602170 -602171
v -602172 -602173 602174 602175 -602176 -602177 -602178 -602179 -602180
v -602181 -602182 -602183 -602184 -602185 -602186 -602187 -602188 -602189
v 602190 602191 602192 -602193 -602194 -602195 -602196 -602197 -602198 -602199
v -602200 -602201 602202 -602203 602204 -602205 602206 -602207 -602208 -602209
v -602210 -602211 -602212 -602213 602214 -602215 -602216 602217 -602218 602219
v 602220 602221 602222 -602223 -602224 -602225 -602226 602227 602228 -602229
v -602230 -602231 -602232 -602233 -602234 602235 602236 -602237 -602238
v -602239 -602240 602241 -602242 -602243 -602244 -602245 602246 -602247 602248
v -602249 602250 -602251 -602252 602253 602254 -602255 -602256 -602257 -602258
v 602259 -602260 602261 602262 -602263 -602264 -602265 -602266 -602267 602268
v -602269 602270 -602271 -602272 602273 602274 602275 602276 602277 602278
v -602279 -602280 -602281 -602282 602283 602284 -602285 -602286 -602287
v -602288 602289 602290 -602291 -602292 -602293 -602294 602295 -602296 -602297
v 602298 -602299 -602300 602301 602302 -602303 -602304 -602305 602306 602307
v -602308 -602309 -602310 602311 -602312 602313 -602314 602315 -602316 -602317
v -602318 602319 -602320 602321 602322 602323 602324 -602325 -602326 -602327
v 602328 -602329 -602330 -602331 -602332 -602333 602334 -602335 -602336 602337
v -602338 -602339 -602340 602341 -602342 602343 -602344 602345 -602346 -602347
v -602348 602349 602350 -602351 -602352 602353 602354 602355 -602356 -602357
v -602358 -602359 -602360 602361 602362 -602363 602364 -602365 -602366 602367
v -602368 602369 -602370 0
c 
c --- [ run-time profiling ] -------------------------------------------------
c 
c process time taken by individual solving procedures
c (percentage relative to process time for solving)
c 
c         1.45   99.99% search
c         0.82   56.76% stable
c         0.60   41.58% unstable
c         0.23   15.82% parse
c         0.02    1.65% lucky
c         0.00    0.00% simplify
c   =================================
c         1.45   84.58% solve
c 
c last line shows process time for solving
c (percentage relative to total process time)
c 
c --- [ statistics ] ---------------------------------------------------------
c 
c chronological:               792        48.50 %  of conflicts
c conflicts:                  1633      1124.73    per second
c decisions:                178981    123273.30    per second
c fixed:                     10529         1.75 %  of all variables
c learned:                    1575        96.45 %  per conflict
c learned_lits:              39375       100.00 %  learned literals
c minimized:                     0         0.00 %  learned literals
c shrunken:                   4170        10.59 %  learned literals
c minishrunken:              11712        29.74 %  learned literals
c otfs:                          8         0.49 %  of conflict
c propagations:           13833803         9.53 M  per second
c rephased:                      1      1633.00    interval
c restarts:                     86        18.99    interval
c stabilizing:                   1        38.70 %  of conflicts
c subsumed:                     31         0.00 %  of all clauses
c strengthened:                  8         0.00 %  of all clauses
c 
c seconds are measured in process time for solving
c 
c --- [ resources ] ----------------------------------------------------------
c 
c total process time since initialization:         1.72    seconds
c total real time since initialization:            1.74    seconds
c maximum resident set size of process:          263.13    MB
c 
c --- [ shutting down ] ------------------------------------------------------
c 
c exit 10
